p cnf 160 1022
-104 0
-33 -100 0
-28 0
32 0
10 0
2 0
96 0
41 0
25 0
80 0
-13 0
61 0
160 0
79 0
39 0
-17 0
23 0
21 0
65 0
50 0
15 0
91 0
-6 0
-51 0
-4 0
42 0
74 0
-49 0
-43 0
-20 0
158 0
72 0
86 0
9 0
-2 4 6 -9 -10 11 13 -15 17 20 -21 -23 -25 28 -32 -39 -41 -42 43 48 49 -50 51 -61 62 -65 -72 -74 -79 -80 -86 -91 -96 -158 -160 0
76 0
83 0
-26 0
105 0
88 0
12 0
47 0
-73 0
114 0
90 0
89 0
59 0
8 0
30 0
36 0
64 0
16 0
46 0
120 0
-14 0
87 0
-5 0
24 0
-40 0
7 0
102 0
1 0
44 0
-29 0
63 0
33 0
-58 0
-1 5 -7 -8 -12 14 -16 -24 26 29 -30 -33 -36 40 -44 -46 -47 58 -59 -63 -64 73 -76 -83 -87 -88 -89 -90 -102 -105 -114 -120 0
-28 -119 0
28 119 0
28 -119 0
-28 119 0
32 -69 0
-32 69 0
-32 -69 0
32 69 0
10 60 0
-10 -60 0
-10 60 0
10 -60 0
2 92 0
-2 -92 0
-2 92 0
2 -92 0
57 96 0
-57 -96 0
57 -96 0
-57 96 0
41 -140 0
-41 140 0
-41 -140 0
41 140 0
25 85 0
-25 -85 0
-25 85 0
25 -85 0
45 80 0
-45 -80 0
45 -80 0
-45 80 0
-13 108 0
13 -108 0
13 108 0
-13 -108 0
61 134 0
-61 -134 0
-61 134 0
61 -134 0
-101 160 0
11 101 -160 0
11 -101 -160 0
101 160 0
-37 79 0
37 -79 0
-37 -79 0
37 79 0
39 98 0
-39 -98 0
-39 98 0
39 -98 0
-17 75 0
-28 76 0
28 -76 0
28 76 0
-17 -75 0
-28 -76 0
28 0
23 -93 0
-28 76 0
23 93 0
21 34 0
32 83 0
21 -34 0
32 -83 0
65 -67 0
65 67 0
50 -115 0
-21 -34 0
-21 34 0
50 115 0
32 83 0
15 68 0
-65 67 0
15 -68 0
91 130 0
-50 115 0
32 0
91 -130 0
-6 107 0
-15 -68 0
-15 68 0
10 -26 0
-6 -107 0
-51 -118 0
10 26 0
-51 118 0
-4 70 0
6 -107 0
6 107 0
-4 -70 0
18 42 0
10 -26 0
-10 -26 0
-18 42 0
-54 74 0
4 -70 0
4 70 0
10 0
54 74 0
-49 -113 0
-18 -42 0
-49 113 0
2 105 0
-43 128 0
-10 0
2 -105 0
-43 -128 0
-20 -104 0
49 113 0
-20 104 0
-124 158 0
-2 -105 0
2 105 0
124 158 0
55 72 0
20 104 0
20 -104 0
-55 72 0
2 0
-82 86 0
-2 0
82 86 0
9 -52 0
88 96 0
-55 -72 0
9 52 0
-88 96 0
82 -86 0
-82 -86 0
-9 52 0
-88 -96 0
88 -96 0
-9 -52 0
88 96 0
-88 0
-96 0
-88 0
88 0
-96 0
96 0
12 41 0
-12 -41 0
12 -41 0
-12 41 0
-12 0
-41 0
12 41 0
-12 0
58 -66 0
12 0
-41 0
76 -122 0
41 0
-76 122 0
76 122 0
-76 -122 0
-71 83 0
25 47 0
71 -83 0
-25 -47 0
25 -47 0
-25 47 0
71 83 0
-19 -26 0
19 -26 0
-94 105 0
-71 -83 0
25 47 0
19 26 0
-25 0
94 105 0
88 117 0
47 0
25 0
-25 0
88 -117 0
12 -123 0
12 123 0
-73 80 0
47 95 0
73 -80 0
73 80 0
-73 -80 0
47 -95 0
-73 99 0
-73 -99 0
-22 114 0
22 114 0
-73 80 0
-80 0
-78 90 0
78 90 0
-73 0
-80 0
80 0
-27 89 0
27 89 0
56 59 0
73 0
-13 114 0
-56 59 0
13 -114 0
-13 -114 0
13 114 0
8 112 0
8 -112 0
30 -38 0
30 38 0
3 36 0
-13 114 0
13 0
-3 36 0
64 126 0
114 0
13 0
-13 0
64 -126 0
16 -84 0
-114 0
16 84 0
61 90 0
46 110 0
-46 -110 0
61 -90 0
-46 110 0
46 -110 0
-77 120 0
77 -120 0
-77 -120 0
77 120 0
61 90 0
-61 90 0
-61 0
14 53 0
14 -53 0
-87 116 0
61 0
-87 -116 0
-61 0
87 -116 0
87 116 0
89 160 0
5 125 0
5 -125 0
-89 160 0
-5 125 0
11 -89 -160 0
11 89 -160 0
24 -35 0
24 35 0
-40 81 0
89 160 0
-40 -81 0
7 -111 0
11 -160 0
7 111 0
102 -109 0
160 0
89 0
11 -160 0
102 109 0
1 106 0
59 79 0
1 -106 0
-31 44 0
-59 79 0
-59 -79 0
59 -79 0
-63 -103 0
-63 103 0
31 44 0
-29 -97 0
59 79 0
-29 97 0
63 103 0
63 -103 0
-79 0
33 100 0
79 0
33 -100 0
59 0
-79 0
-58 -66 0
8 39 0
-58 66 0
58 66 0
-8 39 0
-8 -39 0
8 -39 0
-8 0
-39 0
8 39 0
-8 0
8 0
-39 0
39 0
-17 30 0
17 -30 0
17 30 0
-17 -30 0
-30 0
17 0
-17 30 0
-30 0
30 0
17 0
-17 0
23 36 0
-23 -36 0
-23 36 0
23 -36 0
-36 0
-23 0
23 36 0
-36 0
36 0
-23 0
23 0
21 64 0
-21 -64 0
-21 64 0
21 -64 0
-64 0
-21 0
21 64 0
-64 0
64 0
-21 0
21 0
16 65 0
-16 -65 0
16 -65 0
-16 65 0
-16 0
-65 0
16 65 0
-16 0
16 0
-65 0
65 0
46 50 0
-46 -50 0
46 -50 0
-46 50 0
-46 0
-50 0
46 50 0
-46 0
46 0
-50 0
50 0
15 120 0
-15 -120 0
-15 120 0
15 -120 0
-120 0
-15 0
15 120 0
-120 0
120 0
-15 0
15 0
-14 91 0
14 62 -91 0
-14 62 -91 0
14 91 0
14 0
62 -91 0
-14 91 0
14 0
-14 0
62 -91 0
91 0
-6 87 0
6 -87 0
6 87 0
-6 -87 0
-87 0
6 0
-6 87 0
-87 0
87 0
6 0
-6 0
-5 -51 0
5 51 0
-5 51 0
5 -51 0
5 0
51 0
-5 -51 0
5 0
-5 0
51 0
-51 0
-4 24 0
4 -24 0
4 24 0
-4 -24 0
-24 0
4 0
-4 24 0
-24 0
24 0
4 0
-4 0
-40 42 0
40 -42 0
-40 -42 0
40 42 0
40 0
-42 0
-40 42 0
40 0
-40 0
-42 0
42 0
7 74 0
-7 -74 0
7 -74 0
-7 74 0
-7 0
-74 0
7 74 0
-7 0
7 0
-74 0
74 0
-49 102 0
49 -102 0
49 102 0
-49 -102 0
-102 0
49 0
-49 102 0
-102 0
102 0
49 0
-49 0
1 -43 0
-1 43 0
1 43 0
-1 -43 0
-1 0
43 0
1 -43 0
-1 0
1 0
43 0
-43 0
-20 44 0
20 -44 0
20 44 0
-20 -44 0
-44 0
20 0
-20 44 0
-44 0
44 0
20 0
-20 0
-29 158 0
29 48 -158 0
-29 48 -158 0
29 158 0
29 0
48 -158 0
-29 158 0
29 0
-29 0
48 -158 0
158 0
63 72 0
-63 -72 0
63 -72 0
-63 72 0
-63 0
-72 0
63 72 0
-63 0
63 0
-72 0
72 0
33 86 0
-33 -86 0
33 -86 0
-33 86 0
-33 0
-86 0
33 86 0
-33 0
33 0
-86 0
86 0
9 -58 0
-9 58 0
-9 -58 0
9 58 0
58 0
-9 0
9 -58 0
58 0
-58 0
-9 0
9 0
-124 0
-33 100 0
-76 0
-32 -83 0
-32 83 0
17 -75 0
17 75 0
-23 93 0
-83 0
-23 -93 0
-32 0
-83 0
83 0
-32 0
-65 -67 0
-50 -115 0
-10 26 0
62 -91 -130 0
62 -91 130 0
26 0
-10 0
26 0
-26 0
51 118 0
51 -118 0
-119 0
119 0
-119 0
119 0
-69 0
69 0
-69 0
69 0
60 0
-60 0
60 0
-60 0
92 0
-92 0
92 0
-92 0
57 0
-57 0
57 0
-57 0
-140 0
140 0
-140 0
140 0
85 0
-2 105 0
-85 0
85 0
18 -42 0
-85 0
45 0
-45 0
45 0
-45 0
108 0
-108 0
108 0
-108 0
134 0
-134 0
134 0
-134 0
-101 0
54 -74 0
101 0
-101 0
101 0
-37 0
-54 -74 0
37 0
-37 0
37 0
98 0
-98 0
98 0
-98 0
75 0
-75 0
75 0
-75 0
-93 0
93 0
-93 0
93 0
34 0
-34 0
34 0
-34 0
49 -113 0
-67 0
-105 0
67 0
-67 0
67 0
-115 0
115 0
-115 0
115 0
68 0
-68 0
105 0
68 0
-68 0
43 -128 0
130 0
-2 0
-130 0
130 0
-130 0
43 128 0
-107 0
107 0
-107 0
-118 0
118 0
-118 0
118 0
70 0
-70 0
70 0
-70 0
18 0
-18 0
18 0
-18 0
-54 0
54 0
-54 0
54 0
-113 0
113 0
-113 0
113 0
128 0
-128 0
128 0
-128 0
104 0
104 0
-104 0
124 0
124 0
-124 0
-55 0
48 124 -158 0
-55 0
55 0
82 0
82 0
48 -124 -158 0
-82 0
52 0
52 0
-52 0
-52 0
55 -72 0
-122 0
122 0
-122 0
122 0
-71 0
71 0
-71 0
71 0
-19 0
19 0
-19 0
19 0
-94 0
94 0
-94 0
94 0
117 0
-117 0
117 0
-117 0
-123 0
123 0
-123 0
123 0
95 0
-95 0
95 0
-95 0
99 0
-99 0
99 0
-99 0
-22 0
22 0
-22 0
22 0
-78 0
78 0
-78 0
78 0
-27 0
27 0
-27 0
27 0
56 0
-56 0
56 0
-56 0
112 0
-112 0
112 0
-112 0
-38 0
38 0
-38 0
38 0
3 0
-3 0
3 0
-3 0
126 0
-126 0
126 0
-126 0
-84 0
84 0
-84 0
84 0
110 0
-110 0
110 0
-110 0
-77 0
77 0
-77 0
77 0
-53 0
53 0
-53 0
53 0
-116 0
116 0
-116 0
116 0
-125 0
125 0
-125 0
125 0
-35 0
35 0
-35 0
35 0
81 0
-81 0
81 0
-81 0
-111 0
111 0
-111 0
111 0
-109 0
109 0
-109 0
109 0
106 0
-106 0
106 0
55 0
-106 0
31 0
-31 0
31 0
-31 0
97 0
-97 0
97 0
103 0
-103 0
103 0
-103 0
-97 0
-100 0
100 0
-100 0
100 0
66 0
-66 0
66 0
-66 0
-47 0
-47 0
-19 26 0
94 -105 0
-94 -105 0
-88 -117 0
-88 117 0
-12 123 0
-12 -123 0
73 0
-7 111 0
-47 -95 0
-47 95 0
73 -99 0
73 99 0
22 -114 0
-22 -114 0
78 -90 0
-78 -90 0
27 -89 0
146 0
-27 -89 0
-114 0
-105 0
-56 -59 0
56 -59 0
62 0
-8 -112 0
-8 112 0
51 0
-30 38 0
-30 -38 0
-3 -36 0
-61 -90 0
3 -36 0
-64 -126 0
-64 126 0
-90 0
-16 84 0
-16 -84 0
-90 0
90 0
-14 -53 0
156 0
-14 53 0
-82 0
-5 -125 0
-89 0
28 0
153 0
-28 -153 0
-32 0
-89 0
32 155 0
-155 0
-10 0
10 150 0
-24 35 0
-150 0
2 157 0
107 0
-2 0
96 133 0
-157 0
-96 0
41 129 0
-24 -35 0
-133 0
25 135 0
-41 0
-129 0
80 149 0
-25 0
-135 0
-13 145 0
-80 0
-149 0
61 138 0
13 0
-145 0
-11 0
-61 0
40 -81 0
79 159 0
-138 0
11 -160 0
39 121 0
11 0
40 81 0
-17 137 0
-79 0
-159 0
23 154 0
-39 0
-121 0
21 132 0
17 0
-137 0
65 147 0
-23 0
-154 0
50 -146 0
-21 0
-132 0
15 127 0
-65 0
-147 0
-62 0
-50 0
-7 -111 0
-6 148 0
-15 0
-127 0
-51 141 0
62 -91 0
-102 109 0
-4 136 0
6 0
-148 0
42 143 0
-102 -109 0
-141 0
74 142 0
4 0
-136 0
-49 144 0
-42 0
-143 0
-43 152 0
-74 0
-142 0
-20 139 0
49 0
-144 0
-48 0
43 0
-152 0
72 -156 0
20 0
-139 0
86 131 0
48 -158 0
48 0
9 151 0
-72 0
-1 -106 0
-86 0
-131 0
-9 0
-1 106 0
-59 0
-151 0
31 -44 0
-59 0
-31 -44 0
29 97 0
29 -97 0
